<number of tasks>
50

<cycle time>
1000

<order strength>
0.601


<task times>
1 722
2 435
3 365
4 583
5 591
6 513
7 483
8 567
9 568
10 518
11 481
12 585
13 640
14 508
15 566
16 537
17 440
18 561
19 557
20 528
21 511
22 365
23 321
24 656
25 330
26 442
27 400
28 705
29 317
30 517
31 506
32 687
33 542
34 490
35 374
36 358
37 514
38 232
39 411
40 553
41 332
42 311
43 734
44 529
45 652
46 340
47 461
48 386
49 497
50 511

<precedence relations>
1,31
2,12
3,12
4,12
5,8
5,10
6,7
6,8
6,9
6,10
6,11
7,31
8,12
9,12
9,13
9,14
9,15
9,16
10,12
10,13
10,14
10,16
11,12
11,15
11,16
12,17
12,18
12,19
12,20
12,21
12,22
13,38
14,38
15,22
16,22
16,27
17,26
17,30
18,23
18,24
18,39
19,25
19,26
19,27
20,23
20,24
20,25
20,26
20,27
21,23
21,39
21,46
22,23
22,24
22,28
22,32
23,31
24,38
25,29
25,30
26,28
26,32
26,39
27,28
27,30
27,46
27,47
28,31
29,32
29,45
30,33
30,48
30,49
31,34
31,35
31,36
31,37
31,40
32,38
33,39
33,50
34,45
35,48
36,49
36,50
38,41
38,42
38,43
38,44
40,45
41,47
42,49
44,46
44,47
46,49
46,50
47,48

<end>
